Traveling Salesman Problem/TSP_generados/Aleatorio1621103284_8.tsp
NAME: Aleatorio1621103284_8.tsp
COMMENT: Randomly generated scenario
TYPE: TSP
DIMENSION: 8
EDGE_WEIGHT_TYPE: ATT
NODE_COORD_SECTION
1 0.24 15.38
2 27.05 1.8
3 40.36 1.62
4 32.63 37.17
5 44.22 32.8
6 31.37 5.96
7 8.55 34.59
8 20.45 0.91
