Traveling Salesman Problem/TSP_generados/Aleatorio1621103284_8.opt.tour
NAME: Aleatorio1621103284_8.opt.tour
COMMENT: Optimal solution for Aleatorio1621103284_8 (136.4486161660103)
TYPE: TOUR
DIMENSION: 8
TOUR_SECTION
1 8 2 6 3 5 4 7
-1
EOF
